c *********************************
c * Circuit generated by BenCGen
c *
c * Parity_346
c *
c * Ports with 1 gate(s): 1
c * Ports with 2 gate(s): 346
c * Total gates: 347
c *********************************
p cnf 693 1385
1 349 0
-1 -349 0
1 -348 0
349 -348 0
-1 -349 348 0
1 2 -350 0
-1 2 350 0
1 -2 350 0
-1 -2 -350 0
3 4 -351 0
-3 4 351 0
3 -4 351 0
-3 -4 -351 0
5 6 -352 0
-5 6 352 0
5 -6 352 0
-5 -6 -352 0
7 8 -353 0
-7 8 353 0
7 -8 353 0
-7 -8 -353 0
9 10 -354 0
-9 10 354 0
9 -10 354 0
-9 -10 -354 0
11 12 -355 0
-11 12 355 0
11 -12 355 0
-11 -12 -355 0
13 14 -356 0
-13 14 356 0
13 -14 356 0
-13 -14 -356 0
15 16 -357 0
-15 16 357 0
15 -16 357 0
-15 -16 -357 0
17 18 -358 0
-17 18 358 0
17 -18 358 0
-17 -18 -358 0
19 20 -359 0
-19 20 359 0
19 -20 359 0
-19 -20 -359 0
21 22 -360 0
-21 22 360 0
21 -22 360 0
-21 -22 -360 0
23 24 -361 0
-23 24 361 0
23 -24 361 0
-23 -24 -361 0
25 26 -362 0
-25 26 362 0
25 -26 362 0
-25 -26 -362 0
27 28 -363 0
-27 28 363 0
27 -28 363 0
-27 -28 -363 0
29 30 -364 0
-29 30 364 0
29 -30 364 0
-29 -30 -364 0
31 32 -365 0
-31 32 365 0
31 -32 365 0
-31 -32 -365 0
33 34 -366 0
-33 34 366 0
33 -34 366 0
-33 -34 -366 0
35 36 -367 0
-35 36 367 0
35 -36 367 0
-35 -36 -367 0
37 38 -368 0
-37 38 368 0
37 -38 368 0
-37 -38 -368 0
39 40 -369 0
-39 40 369 0
39 -40 369 0
-39 -40 -369 0
41 42 -370 0
-41 42 370 0
41 -42 370 0
-41 -42 -370 0
43 44 -371 0
-43 44 371 0
43 -44 371 0
-43 -44 -371 0
45 46 -372 0
-45 46 372 0
45 -46 372 0
-45 -46 -372 0
47 48 -373 0
-47 48 373 0
47 -48 373 0
-47 -48 -373 0
49 50 -374 0
-49 50 374 0
49 -50 374 0
-49 -50 -374 0
51 52 -375 0
-51 52 375 0
51 -52 375 0
-51 -52 -375 0
53 54 -376 0
-53 54 376 0
53 -54 376 0
-53 -54 -376 0
55 56 -377 0
-55 56 377 0
55 -56 377 0
-55 -56 -377 0
57 58 -378 0
-57 58 378 0
57 -58 378 0
-57 -58 -378 0
59 60 -379 0
-59 60 379 0
59 -60 379 0
-59 -60 -379 0
61 62 -380 0
-61 62 380 0
61 -62 380 0
-61 -62 -380 0
63 64 -381 0
-63 64 381 0
63 -64 381 0
-63 -64 -381 0
65 66 -382 0
-65 66 382 0
65 -66 382 0
-65 -66 -382 0
67 68 -383 0
-67 68 383 0
67 -68 383 0
-67 -68 -383 0
69 70 -384 0
-69 70 384 0
69 -70 384 0
-69 -70 -384 0
71 72 -385 0
-71 72 385 0
71 -72 385 0
-71 -72 -385 0
73 74 -386 0
-73 74 386 0
73 -74 386 0
-73 -74 -386 0
75 76 -387 0
-75 76 387 0
75 -76 387 0
-75 -76 -387 0
77 78 -388 0
-77 78 388 0
77 -78 388 0
-77 -78 -388 0
79 80 -389 0
-79 80 389 0
79 -80 389 0
-79 -80 -389 0
81 82 -390 0
-81 82 390 0
81 -82 390 0
-81 -82 -390 0
83 84 -391 0
-83 84 391 0
83 -84 391 0
-83 -84 -391 0
85 86 -392 0
-85 86 392 0
85 -86 392 0
-85 -86 -392 0
87 88 -393 0
-87 88 393 0
87 -88 393 0
-87 -88 -393 0
89 90 -394 0
-89 90 394 0
89 -90 394 0
-89 -90 -394 0
91 92 -395 0
-91 92 395 0
91 -92 395 0
-91 -92 -395 0
93 94 -396 0
-93 94 396 0
93 -94 396 0
-93 -94 -396 0
95 96 -397 0
-95 96 397 0
95 -96 397 0
-95 -96 -397 0
97 98 -398 0
-97 98 398 0
97 -98 398 0
-97 -98 -398 0
99 100 -399 0
-99 100 399 0
99 -100 399 0
-99 -100 -399 0
101 102 -400 0
-101 102 400 0
101 -102 400 0
-101 -102 -400 0
103 104 -401 0
-103 104 401 0
103 -104 401 0
-103 -104 -401 0
105 106 -402 0
-105 106 402 0
105 -106 402 0
-105 -106 -402 0
107 108 -403 0
-107 108 403 0
107 -108 403 0
-107 -108 -403 0
109 110 -404 0
-109 110 404 0
109 -110 404 0
-109 -110 -404 0
111 112 -405 0
-111 112 405 0
111 -112 405 0
-111 -112 -405 0
113 114 -406 0
-113 114 406 0
113 -114 406 0
-113 -114 -406 0
115 116 -407 0
-115 116 407 0
115 -116 407 0
-115 -116 -407 0
117 118 -408 0
-117 118 408 0
117 -118 408 0
-117 -118 -408 0
119 120 -409 0
-119 120 409 0
119 -120 409 0
-119 -120 -409 0
121 122 -410 0
-121 122 410 0
121 -122 410 0
-121 -122 -410 0
123 124 -411 0
-123 124 411 0
123 -124 411 0
-123 -124 -411 0
125 126 -412 0
-125 126 412 0
125 -126 412 0
-125 -126 -412 0
127 128 -413 0
-127 128 413 0
127 -128 413 0
-127 -128 -413 0
129 130 -414 0
-129 130 414 0
129 -130 414 0
-129 -130 -414 0
131 132 -415 0
-131 132 415 0
131 -132 415 0
-131 -132 -415 0
133 134 -416 0
-133 134 416 0
133 -134 416 0
-133 -134 -416 0
135 136 -417 0
-135 136 417 0
135 -136 417 0
-135 -136 -417 0
137 138 -418 0
-137 138 418 0
137 -138 418 0
-137 -138 -418 0
139 140 -419 0
-139 140 419 0
139 -140 419 0
-139 -140 -419 0
141 142 -420 0
-141 142 420 0
141 -142 420 0
-141 -142 -420 0
143 144 -421 0
-143 144 421 0
143 -144 421 0
-143 -144 -421 0
145 146 -422 0
-145 146 422 0
145 -146 422 0
-145 -146 -422 0
147 148 -423 0
-147 148 423 0
147 -148 423 0
-147 -148 -423 0
149 150 -424 0
-149 150 424 0
149 -150 424 0
-149 -150 -424 0
151 152 -425 0
-151 152 425 0
151 -152 425 0
-151 -152 -425 0
153 154 -426 0
-153 154 426 0
153 -154 426 0
-153 -154 -426 0
155 156 -427 0
-155 156 427 0
155 -156 427 0
-155 -156 -427 0
157 158 -428 0
-157 158 428 0
157 -158 428 0
-157 -158 -428 0
159 160 -429 0
-159 160 429 0
159 -160 429 0
-159 -160 -429 0
161 162 -430 0
-161 162 430 0
161 -162 430 0
-161 -162 -430 0
163 164 -431 0
-163 164 431 0
163 -164 431 0
-163 -164 -431 0
165 166 -432 0
-165 166 432 0
165 -166 432 0
-165 -166 -432 0
167 168 -433 0
-167 168 433 0
167 -168 433 0
-167 -168 -433 0
169 170 -434 0
-169 170 434 0
169 -170 434 0
-169 -170 -434 0
171 172 -435 0
-171 172 435 0
171 -172 435 0
-171 -172 -435 0
173 174 -436 0
-173 174 436 0
173 -174 436 0
-173 -174 -436 0
175 176 -437 0
-175 176 437 0
175 -176 437 0
-175 -176 -437 0
177 178 -438 0
-177 178 438 0
177 -178 438 0
-177 -178 -438 0
179 180 -439 0
-179 180 439 0
179 -180 439 0
-179 -180 -439 0
181 182 -440 0
-181 182 440 0
181 -182 440 0
-181 -182 -440 0
183 184 -441 0
-183 184 441 0
183 -184 441 0
-183 -184 -441 0
185 186 -442 0
-185 186 442 0
185 -186 442 0
-185 -186 -442 0
187 188 -443 0
-187 188 443 0
187 -188 443 0
-187 -188 -443 0
189 190 -444 0
-189 190 444 0
189 -190 444 0
-189 -190 -444 0
191 192 -445 0
-191 192 445 0
191 -192 445 0
-191 -192 -445 0
193 194 -446 0
-193 194 446 0
193 -194 446 0
-193 -194 -446 0
195 196 -447 0
-195 196 447 0
195 -196 447 0
-195 -196 -447 0
197 198 -448 0
-197 198 448 0
197 -198 448 0
-197 -198 -448 0
199 200 -449 0
-199 200 449 0
199 -200 449 0
-199 -200 -449 0
201 202 -450 0
-201 202 450 0
201 -202 450 0
-201 -202 -450 0
203 204 -451 0
-203 204 451 0
203 -204 451 0
-203 -204 -451 0
205 206 -452 0
-205 206 452 0
205 -206 452 0
-205 -206 -452 0
207 208 -453 0
-207 208 453 0
207 -208 453 0
-207 -208 -453 0
209 210 -454 0
-209 210 454 0
209 -210 454 0
-209 -210 -454 0
211 212 -455 0
-211 212 455 0
211 -212 455 0
-211 -212 -455 0
213 214 -456 0
-213 214 456 0
213 -214 456 0
-213 -214 -456 0
215 216 -457 0
-215 216 457 0
215 -216 457 0
-215 -216 -457 0
217 218 -458 0
-217 218 458 0
217 -218 458 0
-217 -218 -458 0
219 220 -459 0
-219 220 459 0
219 -220 459 0
-219 -220 -459 0
221 222 -460 0
-221 222 460 0
221 -222 460 0
-221 -222 -460 0
223 224 -461 0
-223 224 461 0
223 -224 461 0
-223 -224 -461 0
225 226 -462 0
-225 226 462 0
225 -226 462 0
-225 -226 -462 0
227 228 -463 0
-227 228 463 0
227 -228 463 0
-227 -228 -463 0
229 230 -464 0
-229 230 464 0
229 -230 464 0
-229 -230 -464 0
231 232 -465 0
-231 232 465 0
231 -232 465 0
-231 -232 -465 0
233 234 -466 0
-233 234 466 0
233 -234 466 0
-233 -234 -466 0
235 236 -467 0
-235 236 467 0
235 -236 467 0
-235 -236 -467 0
237 238 -468 0
-237 238 468 0
237 -238 468 0
-237 -238 -468 0
239 240 -469 0
-239 240 469 0
239 -240 469 0
-239 -240 -469 0
241 242 -470 0
-241 242 470 0
241 -242 470 0
-241 -242 -470 0
243 244 -471 0
-243 244 471 0
243 -244 471 0
-243 -244 -471 0
245 246 -472 0
-245 246 472 0
245 -246 472 0
-245 -246 -472 0
247 248 -473 0
-247 248 473 0
247 -248 473 0
-247 -248 -473 0
249 250 -474 0
-249 250 474 0
249 -250 474 0
-249 -250 -474 0
251 252 -475 0
-251 252 475 0
251 -252 475 0
-251 -252 -475 0
253 254 -476 0
-253 254 476 0
253 -254 476 0
-253 -254 -476 0
255 256 -477 0
-255 256 477 0
255 -256 477 0
-255 -256 -477 0
257 258 -478 0
-257 258 478 0
257 -258 478 0
-257 -258 -478 0
259 260 -479 0
-259 260 479 0
259 -260 479 0
-259 -260 -479 0
261 262 -480 0
-261 262 480 0
261 -262 480 0
-261 -262 -480 0
263 264 -481 0
-263 264 481 0
263 -264 481 0
-263 -264 -481 0
265 266 -482 0
-265 266 482 0
265 -266 482 0
-265 -266 -482 0
267 268 -483 0
-267 268 483 0
267 -268 483 0
-267 -268 -483 0
269 270 -484 0
-269 270 484 0
269 -270 484 0
-269 -270 -484 0
271 272 -485 0
-271 272 485 0
271 -272 485 0
-271 -272 -485 0
273 274 -486 0
-273 274 486 0
273 -274 486 0
-273 -274 -486 0
275 276 -487 0
-275 276 487 0
275 -276 487 0
-275 -276 -487 0
277 278 -488 0
-277 278 488 0
277 -278 488 0
-277 -278 -488 0
279 280 -489 0
-279 280 489 0
279 -280 489 0
-279 -280 -489 0
281 282 -490 0
-281 282 490 0
281 -282 490 0
-281 -282 -490 0
283 284 -491 0
-283 284 491 0
283 -284 491 0
-283 -284 -491 0
285 286 -492 0
-285 286 492 0
285 -286 492 0
-285 -286 -492 0
287 288 -493 0
-287 288 493 0
287 -288 493 0
-287 -288 -493 0
289 290 -494 0
-289 290 494 0
289 -290 494 0
-289 -290 -494 0
291 292 -495 0
-291 292 495 0
291 -292 495 0
-291 -292 -495 0
293 294 -496 0
-293 294 496 0
293 -294 496 0
-293 -294 -496 0
295 296 -497 0
-295 296 497 0
295 -296 497 0
-295 -296 -497 0
297 298 -498 0
-297 298 498 0
297 -298 498 0
-297 -298 -498 0
299 300 -499 0
-299 300 499 0
299 -300 499 0
-299 -300 -499 0
301 302 -500 0
-301 302 500 0
301 -302 500 0
-301 -302 -500 0
303 304 -501 0
-303 304 501 0
303 -304 501 0
-303 -304 -501 0
305 306 -502 0
-305 306 502 0
305 -306 502 0
-305 -306 -502 0
307 308 -503 0
-307 308 503 0
307 -308 503 0
-307 -308 -503 0
309 310 -504 0
-309 310 504 0
309 -310 504 0
-309 -310 -504 0
311 312 -505 0
-311 312 505 0
311 -312 505 0
-311 -312 -505 0
313 314 -506 0
-313 314 506 0
313 -314 506 0
-313 -314 -506 0
315 316 -507 0
-315 316 507 0
315 -316 507 0
-315 -316 -507 0
317 318 -508 0
-317 318 508 0
317 -318 508 0
-317 -318 -508 0
319 320 -509 0
-319 320 509 0
319 -320 509 0
-319 -320 -509 0
321 322 -510 0
-321 322 510 0
321 -322 510 0
-321 -322 -510 0
323 324 -511 0
-323 324 511 0
323 -324 511 0
-323 -324 -511 0
325 326 -512 0
-325 326 512 0
325 -326 512 0
-325 -326 -512 0
327 328 -513 0
-327 328 513 0
327 -328 513 0
-327 -328 -513 0
329 330 -514 0
-329 330 514 0
329 -330 514 0
-329 -330 -514 0
331 332 -515 0
-331 332 515 0
331 -332 515 0
-331 -332 -515 0
333 334 -516 0
-333 334 516 0
333 -334 516 0
-333 -334 -516 0
335 336 -517 0
-335 336 517 0
335 -336 517 0
-335 -336 -517 0
337 338 -518 0
-337 338 518 0
337 -338 518 0
-337 -338 -518 0
339 340 -519 0
-339 340 519 0
339 -340 519 0
-339 -340 -519 0
341 342 -520 0
-341 342 520 0
341 -342 520 0
-341 -342 -520 0
343 344 -521 0
-343 344 521 0
343 -344 521 0
-343 -344 -521 0
345 346 -522 0
-345 346 522 0
345 -346 522 0
-345 -346 -522 0
350 351 -523 0
-350 351 523 0
350 -351 523 0
-350 -351 -523 0
352 353 -524 0
-352 353 524 0
352 -353 524 0
-352 -353 -524 0
354 355 -525 0
-354 355 525 0
354 -355 525 0
-354 -355 -525 0
356 357 -526 0
-356 357 526 0
356 -357 526 0
-356 -357 -526 0
358 359 -527 0
-358 359 527 0
358 -359 527 0
-358 -359 -527 0
360 361 -528 0
-360 361 528 0
360 -361 528 0
-360 -361 -528 0
362 363 -529 0
-362 363 529 0
362 -363 529 0
-362 -363 -529 0
364 365 -530 0
-364 365 530 0
364 -365 530 0
-364 -365 -530 0
366 367 -531 0
-366 367 531 0
366 -367 531 0
-366 -367 -531 0
368 369 -532 0
-368 369 532 0
368 -369 532 0
-368 -369 -532 0
370 371 -533 0
-370 371 533 0
370 -371 533 0
-370 -371 -533 0
372 373 -534 0
-372 373 534 0
372 -373 534 0
-372 -373 -534 0
374 375 -535 0
-374 375 535 0
374 -375 535 0
-374 -375 -535 0
376 377 -536 0
-376 377 536 0
376 -377 536 0
-376 -377 -536 0
378 379 -537 0
-378 379 537 0
378 -379 537 0
-378 -379 -537 0
380 381 -538 0
-380 381 538 0
380 -381 538 0
-380 -381 -538 0
382 383 -539 0
-382 383 539 0
382 -383 539 0
-382 -383 -539 0
384 385 -540 0
-384 385 540 0
384 -385 540 0
-384 -385 -540 0
386 387 -541 0
-386 387 541 0
386 -387 541 0
-386 -387 -541 0
388 389 -542 0
-388 389 542 0
388 -389 542 0
-388 -389 -542 0
390 391 -543 0
-390 391 543 0
390 -391 543 0
-390 -391 -543 0
392 393 -544 0
-392 393 544 0
392 -393 544 0
-392 -393 -544 0
394 395 -545 0
-394 395 545 0
394 -395 545 0
-394 -395 -545 0
396 397 -546 0
-396 397 546 0
396 -397 546 0
-396 -397 -546 0
398 399 -547 0
-398 399 547 0
398 -399 547 0
-398 -399 -547 0
400 401 -548 0
-400 401 548 0
400 -401 548 0
-400 -401 -548 0
402 403 -549 0
-402 403 549 0
402 -403 549 0
-402 -403 -549 0
404 405 -550 0
-404 405 550 0
404 -405 550 0
-404 -405 -550 0
406 407 -551 0
-406 407 551 0
406 -407 551 0
-406 -407 -551 0
408 409 -552 0
-408 409 552 0
408 -409 552 0
-408 -409 -552 0
410 411 -553 0
-410 411 553 0
410 -411 553 0
-410 -411 -553 0
412 413 -554 0
-412 413 554 0
412 -413 554 0
-412 -413 -554 0
414 415 -555 0
-414 415 555 0
414 -415 555 0
-414 -415 -555 0
416 417 -556 0
-416 417 556 0
416 -417 556 0
-416 -417 -556 0
418 419 -557 0
-418 419 557 0
418 -419 557 0
-418 -419 -557 0
420 421 -558 0
-420 421 558 0
420 -421 558 0
-420 -421 -558 0
422 423 -559 0
-422 423 559 0
422 -423 559 0
-422 -423 -559 0
424 425 -560 0
-424 425 560 0
424 -425 560 0
-424 -425 -560 0
426 427 -561 0
-426 427 561 0
426 -427 561 0
-426 -427 -561 0
428 429 -562 0
-428 429 562 0
428 -429 562 0
-428 -429 -562 0
430 431 -563 0
-430 431 563 0
430 -431 563 0
-430 -431 -563 0
432 433 -564 0
-432 433 564 0
432 -433 564 0
-432 -433 -564 0
434 435 -565 0
-434 435 565 0
434 -435 565 0
-434 -435 -565 0
436 437 -566 0
-436 437 566 0
436 -437 566 0
-436 -437 -566 0
438 439 -567 0
-438 439 567 0
438 -439 567 0
-438 -439 -567 0
440 441 -568 0
-440 441 568 0
440 -441 568 0
-440 -441 -568 0
442 443 -569 0
-442 443 569 0
442 -443 569 0
-442 -443 -569 0
444 445 -570 0
-444 445 570 0
444 -445 570 0
-444 -445 -570 0
446 447 -571 0
-446 447 571 0
446 -447 571 0
-446 -447 -571 0
448 449 -572 0
-448 449 572 0
448 -449 572 0
-448 -449 -572 0
450 451 -573 0
-450 451 573 0
450 -451 573 0
-450 -451 -573 0
452 453 -574 0
-452 453 574 0
452 -453 574 0
-452 -453 -574 0
454 455 -575 0
-454 455 575 0
454 -455 575 0
-454 -455 -575 0
456 457 -576 0
-456 457 576 0
456 -457 576 0
-456 -457 -576 0
458 459 -577 0
-458 459 577 0
458 -459 577 0
-458 -459 -577 0
460 461 -578 0
-460 461 578 0
460 -461 578 0
-460 -461 -578 0
462 463 -579 0
-462 463 579 0
462 -463 579 0
-462 -463 -579 0
464 465 -580 0
-464 465 580 0
464 -465 580 0
-464 -465 -580 0
466 467 -581 0
-466 467 581 0
466 -467 581 0
-466 -467 -581 0
468 469 -582 0
-468 469 582 0
468 -469 582 0
-468 -469 -582 0
470 471 -583 0
-470 471 583 0
470 -471 583 0
-470 -471 -583 0
472 473 -584 0
-472 473 584 0
472 -473 584 0
-472 -473 -584 0
474 475 -585 0
-474 475 585 0
474 -475 585 0
-474 -475 -585 0
476 477 -586 0
-476 477 586 0
476 -477 586 0
-476 -477 -586 0
478 479 -587 0
-478 479 587 0
478 -479 587 0
-478 -479 -587 0
480 481 -588 0
-480 481 588 0
480 -481 588 0
-480 -481 -588 0
482 483 -589 0
-482 483 589 0
482 -483 589 0
-482 -483 -589 0
484 485 -590 0
-484 485 590 0
484 -485 590 0
-484 -485 -590 0
486 487 -591 0
-486 487 591 0
486 -487 591 0
-486 -487 -591 0
488 489 -592 0
-488 489 592 0
488 -489 592 0
-488 -489 -592 0
490 491 -593 0
-490 491 593 0
490 -491 593 0
-490 -491 -593 0
492 493 -594 0
-492 493 594 0
492 -493 594 0
-492 -493 -594 0
494 495 -595 0
-494 495 595 0
494 -495 595 0
-494 -495 -595 0
496 497 -596 0
-496 497 596 0
496 -497 596 0
-496 -497 -596 0
498 499 -597 0
-498 499 597 0
498 -499 597 0
-498 -499 -597 0
500 501 -598 0
-500 501 598 0
500 -501 598 0
-500 -501 -598 0
502 503 -599 0
-502 503 599 0
502 -503 599 0
-502 -503 -599 0
504 505 -600 0
-504 505 600 0
504 -505 600 0
-504 -505 -600 0
506 507 -601 0
-506 507 601 0
506 -507 601 0
-506 -507 -601 0
508 509 -602 0
-508 509 602 0
508 -509 602 0
-508 -509 -602 0
510 511 -603 0
-510 511 603 0
510 -511 603 0
-510 -511 -603 0
512 513 -604 0
-512 513 604 0
512 -513 604 0
-512 -513 -604 0
514 515 -605 0
-514 515 605 0
514 -515 605 0
-514 -515 -605 0
516 517 -606 0
-516 517 606 0
516 -517 606 0
-516 -517 -606 0
518 519 -607 0
-518 519 607 0
518 -519 607 0
-518 -519 -607 0
520 521 -608 0
-520 521 608 0
520 -521 608 0
-520 -521 -608 0
523 524 -609 0
-523 524 609 0
523 -524 609 0
-523 -524 -609 0
525 526 -610 0
-525 526 610 0
525 -526 610 0
-525 -526 -610 0
527 528 -611 0
-527 528 611 0
527 -528 611 0
-527 -528 -611 0
529 530 -612 0
-529 530 612 0
529 -530 612 0
-529 -530 -612 0
531 532 -613 0
-531 532 613 0
531 -532 613 0
-531 -532 -613 0
533 534 -614 0
-533 534 614 0
533 -534 614 0
-533 -534 -614 0
535 536 -615 0
-535 536 615 0
535 -536 615 0
-535 -536 -615 0
537 538 -616 0
-537 538 616 0
537 -538 616 0
-537 -538 -616 0
539 540 -617 0
-539 540 617 0
539 -540 617 0
-539 -540 -617 0
541 542 -618 0
-541 542 618 0
541 -542 618 0
-541 -542 -618 0
543 544 -619 0
-543 544 619 0
543 -544 619 0
-543 -544 -619 0
545 546 -620 0
-545 546 620 0
545 -546 620 0
-545 -546 -620 0
547 548 -621 0
-547 548 621 0
547 -548 621 0
-547 -548 -621 0
549 550 -622 0
-549 550 622 0
549 -550 622 0
-549 -550 -622 0
551 552 -623 0
-551 552 623 0
551 -552 623 0
-551 -552 -623 0
553 554 -624 0
-553 554 624 0
553 -554 624 0
-553 -554 -624 0
555 556 -625 0
-555 556 625 0
555 -556 625 0
-555 -556 -625 0
557 558 -626 0
-557 558 626 0
557 -558 626 0
-557 -558 -626 0
559 560 -627 0
-559 560 627 0
559 -560 627 0
-559 -560 -627 0
561 562 -628 0
-561 562 628 0
561 -562 628 0
-561 -562 -628 0
563 564 -629 0
-563 564 629 0
563 -564 629 0
-563 -564 -629 0
565 566 -630 0
-565 566 630 0
565 -566 630 0
-565 -566 -630 0
567 568 -631 0
-567 568 631 0
567 -568 631 0
-567 -568 -631 0
569 570 -632 0
-569 570 632 0
569 -570 632 0
-569 -570 -632 0
571 572 -633 0
-571 572 633 0
571 -572 633 0
-571 -572 -633 0
573 574 -634 0
-573 574 634 0
573 -574 634 0
-573 -574 -634 0
575 576 -635 0
-575 576 635 0
575 -576 635 0
-575 -576 -635 0
577 578 -636 0
-577 578 636 0
577 -578 636 0
-577 -578 -636 0
579 580 -637 0
-579 580 637 0
579 -580 637 0
-579 -580 -637 0
581 582 -638 0
-581 582 638 0
581 -582 638 0
-581 -582 -638 0
583 584 -639 0
-583 584 639 0
583 -584 639 0
-583 -584 -639 0
585 586 -640 0
-585 586 640 0
585 -586 640 0
-585 -586 -640 0
587 588 -641 0
-587 588 641 0
587 -588 641 0
-587 -588 -641 0
589 590 -642 0
-589 590 642 0
589 -590 642 0
-589 -590 -642 0
591 592 -643 0
-591 592 643 0
591 -592 643 0
-591 -592 -643 0
593 594 -644 0
-593 594 644 0
593 -594 644 0
-593 -594 -644 0
595 596 -645 0
-595 596 645 0
595 -596 645 0
-595 -596 -645 0
597 598 -646 0
-597 598 646 0
597 -598 646 0
-597 -598 -646 0
599 600 -647 0
-599 600 647 0
599 -600 647 0
-599 -600 -647 0
601 602 -648 0
-601 602 648 0
601 -602 648 0
-601 -602 -648 0
603 604 -649 0
-603 604 649 0
603 -604 649 0
-603 -604 -649 0
605 606 -650 0
-605 606 650 0
605 -606 650 0
-605 -606 -650 0
607 608 -651 0
-607 608 651 0
607 -608 651 0
-607 -608 -651 0
609 610 -652 0
-609 610 652 0
609 -610 652 0
-609 -610 -652 0
611 612 -653 0
-611 612 653 0
611 -612 653 0
-611 -612 -653 0
613 614 -654 0
-613 614 654 0
613 -614 654 0
-613 -614 -654 0
615 616 -655 0
-615 616 655 0
615 -616 655 0
-615 -616 -655 0
617 618 -656 0
-617 618 656 0
617 -618 656 0
-617 -618 -656 0
619 620 -657 0
-619 620 657 0
619 -620 657 0
-619 -620 -657 0
621 622 -658 0
-621 622 658 0
621 -622 658 0
-621 -622 -658 0
623 624 -659 0
-623 624 659 0
623 -624 659 0
-623 -624 -659 0
625 626 -660 0
-625 626 660 0
625 -626 660 0
-625 -626 -660 0
627 628 -661 0
-627 628 661 0
627 -628 661 0
-627 -628 -661 0
629 630 -662 0
-629 630 662 0
629 -630 662 0
-629 -630 -662 0
631 632 -663 0
-631 632 663 0
631 -632 663 0
-631 -632 -663 0
633 634 -664 0
-633 634 664 0
633 -634 664 0
-633 -634 -664 0
635 636 -665 0
-635 636 665 0
635 -636 665 0
-635 -636 -665 0
637 638 -666 0
-637 638 666 0
637 -638 666 0
-637 -638 -666 0
639 640 -667 0
-639 640 667 0
639 -640 667 0
-639 -640 -667 0
641 642 -668 0
-641 642 668 0
641 -642 668 0
-641 -642 -668 0
643 644 -669 0
-643 644 669 0
643 -644 669 0
-643 -644 -669 0
645 646 -670 0
-645 646 670 0
645 -646 670 0
-645 -646 -670 0
647 648 -671 0
-647 648 671 0
647 -648 671 0
-647 -648 -671 0
649 650 -672 0
-649 650 672 0
649 -650 672 0
-649 -650 -672 0
651 522 -673 0
-651 522 673 0
651 -522 673 0
-651 -522 -673 0
652 653 -674 0
-652 653 674 0
652 -653 674 0
-652 -653 -674 0
654 655 -675 0
-654 655 675 0
654 -655 675 0
-654 -655 -675 0
656 657 -676 0
-656 657 676 0
656 -657 676 0
-656 -657 -676 0
658 659 -677 0
-658 659 677 0
658 -659 677 0
-658 -659 -677 0
660 661 -678 0
-660 661 678 0
660 -661 678 0
-660 -661 -678 0
662 663 -679 0
-662 663 679 0
662 -663 679 0
-662 -663 -679 0
664 665 -680 0
-664 665 680 0
664 -665 680 0
-664 -665 -680 0
666 667 -681 0
-666 667 681 0
666 -667 681 0
-666 -667 -681 0
668 669 -682 0
-668 669 682 0
668 -669 682 0
-668 -669 -682 0
670 671 -683 0
-670 671 683 0
670 -671 683 0
-670 -671 -683 0
672 673 -684 0
-672 673 684 0
672 -673 684 0
-672 -673 -684 0
674 675 -685 0
-674 675 685 0
674 -675 685 0
-674 -675 -685 0
676 677 -686 0
-676 677 686 0
676 -677 686 0
-676 -677 -686 0
678 679 -687 0
-678 679 687 0
678 -679 687 0
-678 -679 -687 0
680 681 -688 0
-680 681 688 0
680 -681 688 0
-680 -681 -688 0
682 683 -689 0
-682 683 689 0
682 -683 689 0
-682 -683 -689 0
685 686 -690 0
-685 686 690 0
685 -686 690 0
-685 -686 -690 0
687 688 -691 0
-687 688 691 0
687 -688 691 0
-687 -688 -691 0
689 684 -692 0
-689 684 692 0
689 -684 692 0
-689 -684 -692 0
690 691 -693 0
-690 691 693 0
690 -691 693 0
-690 -691 -693 0
693 692 -347 0
-693 692 347 0
693 -692 347 0
-693 -692 -347 0
